(set-logic QF_S)
(declare-fun var0 () String)
(assert (str.in.re var0 (re.++ (re.* (re.union (str.to.re "00") (str.to.re "11"))) (re.++ (re.union (re.* (str.to.re "2")) (re.* (str.to.re "3"))) (re.++ (re.union (re.union (str.to.re "4") (str.to.re "55")) (re.union (str.to.re "666") (str.to.re "77"))) (re.++ (re.union (re.+ (str.to.re "8")) (re.+ (str.to.re "9"))) (re.++ (re.union (re.* (str.to.re "aa")) (re.* (str.to.re "bb"))) (re.++ (re.union (re.* (str.to.re "c")) (re.* (str.to.re "dd"))) (re.++ (re.union (re.+ (str.to.re "eee")) (re.+ (str.to.re "ff"))) (re.++ (re.* (re.* (str.to.re "ggg"))) (re.++ (re.+ (re.union (str.to.re "hh") (str.to.re "iii"))) (re.* (re.union (str.to.re "jj") (str.to.re "kkk"))))))))))))))
(assert (<= 476 (str.len var0)))
(check-sat)